outputs/case_157.smt2
; SMT2 file generated from compliance case automatic
; Case ID: case_157
; Generated at: 2025-10-21T03:33:03.114007
;
; This file can be executed with Z3:
;   z3 case_157.smt2
;

(set-logic ALL)

; ============================================================
; Variable Declarations
; ============================================================

(declare-const capital_adequacy_ratio Real)
(declare-const capital_insufficient_measures_executed Bool)
(declare-const capital_level Int)
(declare-const capital_level_lowest_rule Int)
(declare-const capital_severely_insufficient_measures_executed Bool)
(declare-const capital_significantly_insufficient_measures_executed Bool)
(declare-const improvement_plan_executed Bool)
(declare-const improvement_plan_submitted Bool)
(declare-const insufficient_and_no_measures Bool)
(declare-const internal_control_established Bool)
(declare-const internal_control_executed Bool)
(declare-const internal_control_ok Bool)
(declare-const internal_handling_established Bool)
(declare-const internal_handling_executed Bool)
(declare-const internal_handling_ok Bool)
(declare-const net_worth Real)
(declare-const net_worth_ratio Real)
(declare-const penalty Bool)
(declare-const severe_insufficient_and_no_measures Bool)
(declare-const severely_insufficient_measures_executed Bool)
(declare-const significant_insufficient_and_no_measures Bool)
(declare-const significantly_insufficient_measures_executed Bool)

; ============================================================
; Constraints (Legal Rules)
; ============================================================

; [insurance:capital_level] 保險業資本等級分類（1=資本適足, 2=資本不足, 3=資本顯著不足, 4=資本嚴重不足, 0=未分類）
(assert (let ((a!1 (ite (and (<= 150.0 capital_adequacy_ratio)
                     (not (<= 200.0 capital_adequacy_ratio)))
                2
                (ite (<= 200.0 capital_adequacy_ratio) 1 0))))
(let ((a!2 (ite (and (<= 50.0 capital_adequacy_ratio)
                     (not (<= 150.0 capital_adequacy_ratio))
                     (<= 0.0 net_worth_ratio)
                     (not (<= 2.0 net_worth_ratio)))
                3
                a!1)))
(let ((a!3 (ite (or (not (<= 0.0 net_worth))
                    (not (<= 50.0 capital_adequacy_ratio)))
                4
                a!2)))
  (= capital_level a!3)))))

; [insurance:capital_level_lowest_rule] 資本等級以較低等級為準（同時符合多等級時）
(assert (let ((a!1 (ite (or (not (<= 0.0 net_worth))
                    (not (<= 50.0 capital_adequacy_ratio)))
                4
                0)))
(let ((a!2 (ite (and (<= 50.0 capital_adequacy_ratio)
                     (not (<= 150.0 capital_adequacy_ratio)))
                3
                a!1)))
(let ((a!3 (ite (and (<= 150.0 capital_adequacy_ratio)
                     (not (<= 200.0 capital_adequacy_ratio)))
                2
                a!2)))
  (= capital_level_lowest_rule
     (ite (and (<= 200.0 capital_adequacy_ratio) (<= 3.0 net_worth_ratio))
          1
          a!3))))))

; [insurance:capital_severely_insufficient_measures_executed] 資本嚴重不足等級措施已執行
(assert (= capital_severely_insufficient_measures_executed
   severely_insufficient_measures_executed))

; [insurance:capital_significantly_insufficient_measures_executed] 資本顯著不足等級措施已執行
(assert (= capital_significantly_insufficient_measures_executed
   significantly_insufficient_measures_executed))

; [insurance:capital_insufficient_measures_executed] 資本不足等級措施已執行
(assert (= capital_insufficient_measures_executed
   (and improvement_plan_submitted improvement_plan_executed)))

; [insurance:severe_insufficient_and_no_measures] 資本嚴重不足且未執行對應措施
(assert (= severe_insufficient_and_no_measures
   (and (= 4 capital_level)
        (not capital_severely_insufficient_measures_executed))))

; [insurance:significant_insufficient_and_no_measures] 資本顯著不足且未執行對應措施
(assert (= significant_insufficient_and_no_measures
   (and (= 3 capital_level)
        (not capital_significantly_insufficient_measures_executed))))

; [insurance:insufficient_and_no_measures] 資本不足且未執行對應措施
(assert (= insufficient_and_no_measures
   (and (= 2 capital_level) (not capital_insufficient_measures_executed))))

; [insurance:internal_control_ok] 建立內部控制及稽核制度且確實執行
(assert (= internal_control_ok
   (and internal_control_established internal_control_executed)))

; [insurance:internal_handling_ok] 建立內部處理制度及程序且確實執行
(assert (= internal_handling_ok
   (and internal_handling_established internal_handling_executed)))

; [insurance:penalty_default_false] 預設不處罰
(assert (not penalty))

; [insurance:penalty_conditions] 處罰條件：資本不足等級達一定程度且未執行對應措施，或違反內部控制及處理制度規定時處罰
(assert (= penalty
   (or (and (= 3 capital_level)
            (not capital_significantly_insufficient_measures_executed))
       (not internal_handling_ok)
       (and (= 4 capital_level)
            (not capital_severely_insufficient_measures_executed))
       (not internal_control_ok)
       (and (= 2 capital_level) (not capital_insufficient_measures_executed)))))

; ============================================================
; Facts (Case Specific)
; ============================================================

(assert (= capital_adequacy_ratio 100.0))
(assert (= net_worth 100.0))
(assert (= net_worth_ratio 3.0))
(assert (= capital_level 1))
(assert (= capital_level_lowest_rule 1))
(assert (= improvement_plan_submitted false))
(assert (= improvement_plan_executed false))
(assert (= capital_insufficient_measures_executed false))
(assert (= capital_significantly_insufficient_measures_executed false))
(assert (= capital_severely_insufficient_measures_executed false))
(assert (= internal_control_established false))
(assert (= internal_control_executed false))
(assert (= internal_handling_established false))
(assert (= internal_handling_executed false))

; ============================================================
; Check Satisfiability
; ============================================================

(check-sat)
(get-model)

; ============================================================
; Additional Information
; ============================================================
; Total constraints: 12
; Total variables: 22
; Total facts: 14
;
; Expected result:
;   - If UNSAT: Case violates legal rules
;   - If SAT: Case complies with legal rules (or error in constraints)
