outputs/case_157.model.txt
severely_insufficient_measures_executed = False
capital_adequacy_ratio = 100
net_worth_ratio = 3
net_worth = 100
improvement_plan_submitted = False
improvement_plan_executed = False
significantly_insufficient_measures_executed = False
significant_insufficient_and_no_measures = False
internal_handling_established = True
severe_insufficient_and_no_measures = False
insufficient_and_no_measures = False
capital_severely_insufficient_measures_executed = False
internal_handling_ok = True
capital_insufficient_measures_executed = False
capital_level = 0
capital_level_lowest_rule = 3
internal_control_executed = True
penalty = False
internal_handling_executed = True
internal_control_established = True
capital_significantly_insufficient_measures_executed = False
internal_control_ok = True